; Query 994 -- Type: InitialValues, Instructions: 3308280
(set-option :produce-models true)
(set-logic QF_AUFBV )
(declare-fun addrbase () (Array (_ BitVec 32) (_ BitVec 8) ) )
(declare-fun addrofs () (Array (_ BitVec 32) (_ BitVec 8) ) )
(declare-fun cy_we () (Array (_ BitVec 32) (_ BitVec 8) ) )
(declare-fun ex_spr_read () (Array (_ BitVec 32) (_ BitVec 8) ) )
(declare-fun ex_spr_write () (Array (_ BitVec 32) (_ BitVec 8) ) )
(declare-fun flag_we () (Array (_ BitVec 32) (_ BitVec 8) ) )
(assert (let ( (?B1 (select  flag_we (_ bv0 32) ) ) (?B2 (select  cy_we (_ bv0 32) ) ) (?B3 (bvor  (concat  (select  addrbase (_ bv3 32) ) (concat  (select  addrbase (_ bv2 32) ) (concat  (select  addrbase (_ bv1 32) ) (select  addrbase (_ bv0 32) ) ) ) ) ((_ zero_extend 16)  (concat  (select  addrofs (_ bv1 32) ) (select  addrofs (_ bv0 32) ) ) ) ) ) ) (let ( (?B4 (bvand  (bvlshr  ?B3 (_ bv11 32) ) (_ bv31 32) ) ) ) (let ( (?B5 (=  (_ bv22 32) ?B4 ) ) ) (and  (and  (and  (and  (and  (and  (and  (and  (and  (and  (and  (=  (_ bv0 8) ((_ extract 7  0)  (bvor  (bvor  (bvand  ((_ zero_extend 24)  ((_ extract 7  0)  ((_ zero_extend 24)  (select  ex_spr_write (_ bv0 32) ) ) ) ) ((_ zero_extend 24)  ((_ extract 7  0)  (bvand  (bvlshr  (bvand  (ite  ?B5 (_ bv4194304 32) (_ bv8388608 32) ) (bvsub  (_ bv0 32) ((_ zero_extend 24)  (select  ex_spr_read (_ bv0 32) ) ) ) ) (_ bv0 32) ) ((_ zero_extend 31)  (ite (=  (_ bv17 32) (bvand  (bvlshr  ?B3 (_ bv0 32) ) (_ bv2047 32) ) ) (_ bv1 1) (_ bv0 1) ) ) ) ) ) ) ((_ zero_extend 24)  ?B1 ) ) ((_ zero_extend 24)  ?B2 ) ) ) ) (=  (_ bv0 32) (bvor  (bvor  (bvor  (bvor  (bvor  (bvor  (bvor  ((_ zero_extend 31)  (ite (=  (_ bv0 32) ?B4 ) (_ bv1 1) (_ bv0 1) ) ) ((_ zero_extend 31)  (ite (=  (_ bv1 32) ?B4 ) (_ bv1 1) (_ bv0 1) ) ) ) ((_ zero_extend 31)  (ite (=  (_ bv2 32) ?B4 ) (_ bv1 1) (_ bv0 1) ) ) ) ((_ zero_extend 31)  (ite (=  (_ bv3 32) ?B4 ) (_ bv1 1) (_ bv0 1) ) ) ) ((_ zero_extend 31)  (ite (=  (_ bv4 32) ?B4 ) (_ bv1 1) (_ bv0 1) ) ) ) ((_ zero_extend 31)  (ite (=  (_ bv5 32) ?B4 ) (_ bv1 1) (_ bv0 1) ) ) ) ((_ zero_extend 31)  (ite (=  (_ bv6 32) ?B4 ) (_ bv1 1) (_ bv0 1) ) ) ) ((_ zero_extend 31)  (ite (=  (_ bv7 32) ?B4 ) (_ bv1 1) (_ bv0 1) ) ) ) ) ) (=  (_ bv0 32) (bvor  (bvor  (bvor  (bvor  (bvor  (bvor  (bvor  ((_ zero_extend 31)  (ite (=  (_ bv8 32) ?B4 ) (_ bv1 1) (_ bv0 1) ) ) ((_ zero_extend 31)  (ite (=  (_ bv9 32) ?B4 ) (_ bv1 1) (_ bv0 1) ) ) ) ((_ zero_extend 31)  (ite (=  (_ bv10 32) ?B4 ) (_ bv1 1) (_ bv0 1) ) ) ) ((_ zero_extend 31)  (ite (=  (_ bv11 32) ?B4 ) (_ bv1 1) (_ bv0 1) ) ) ) ((_ zero_extend 31)  (ite (=  (_ bv12 32) ?B4 ) (_ bv1 1) (_ bv0 1) ) ) ) ((_ zero_extend 31)  (ite (=  (_ bv13 32) ?B4 ) (_ bv1 1) (_ bv0 1) ) ) ) ((_ zero_extend 31)  (ite (=  (_ bv14 32) ?B4 ) (_ bv1 1) (_ bv0 1) ) ) ) ((_ zero_extend 31)  (ite (=  (_ bv15 32) ?B4 ) (_ bv1 1) (_ bv0 1) ) ) ) ) ) (=  false (=  (_ bv0 32) (bvor  ((_ zero_extend 31)  (ite ?B5 (_ bv1 1) (_ bv0 1) ) ) ((_ zero_extend 31)  (ite (=  (_ bv23 32) ?B4 ) (_ bv1 1) (_ bv0 1) ) ) ) ) ) ) (=  false (=  (_ bv16 32) ?B4 ) ) ) (=  false (=  (_ bv17 32) ?B4 ) ) ) (=  false (=  (_ bv18 32) ?B4 ) ) ) (=  false (=  (_ bv19 32) ?B4 ) ) ) (=  false (=  (_ bv20 32) ?B4 ) ) ) (=  false (=  (_ bv21 32) ?B4 ) ) ) (=  false (=  (_ bv0 8) ?B2 ) ) ) (=  false (=  (_ bv0 8) ?B1 ) ) ) ) ) ) )
(check-sat)
(get-value ( (select addrbase (_ bv0 32) ) ) )
(get-value ( (select addrbase (_ bv1 32) ) ) )
(get-value ( (select addrbase (_ bv2 32) ) ) )
(get-value ( (select addrbase (_ bv3 32) ) ) )
(get-value ( (select addrofs (_ bv0 32) ) ) )
(get-value ( (select addrofs (_ bv1 32) ) ) )
(get-value ( (select addrofs (_ bv2 32) ) ) )
(get-value ( (select addrofs (_ bv3 32) ) ) )
(get-value ( (select flag_we (_ bv0 32) ) ) )
(get-value ( (select flag_we (_ bv1 32) ) ) )
(get-value ( (select flag_we (_ bv2 32) ) ) )
(get-value ( (select flag_we (_ bv3 32) ) ) )
(get-value ( (select cy_we (_ bv0 32) ) ) )
(get-value ( (select cy_we (_ bv1 32) ) ) )
(get-value ( (select cy_we (_ bv2 32) ) ) )
(get-value ( (select cy_we (_ bv3 32) ) ) )
(get-value ( (select ex_spr_write (_ bv0 32) ) ) )
(get-value ( (select ex_spr_write (_ bv1 32) ) ) )
(get-value ( (select ex_spr_write (_ bv2 32) ) ) )
(get-value ( (select ex_spr_write (_ bv3 32) ) ) )
(get-value ( (select ex_spr_read (_ bv0 32) ) ) )
(get-value ( (select ex_spr_read (_ bv1 32) ) ) )
(get-value ( (select ex_spr_read (_ bv2 32) ) ) )
(get-value ( (select ex_spr_read (_ bv3 32) ) ) )
(exit)
;   OK -- Elapsed: 6.730080e-03
;   Solvable: false
